; benchmark generated from python API
(set-info :status unknown)
(define-funs-rec ( ( T2_11 ((x!1 Int)) Int)
                   ( p2_11 ((x!1 Int)) Int)
                   ( ilog2_2_11 ((x!1 Int)) Int)
                   ( T2_09 ((x!1 Int)) Int)
                   ( o2_09 ((x!1 Int)) Int)
                   ( f2_09 ((x!1 Int)) Int)
                   ( p2_09 ((x!1 Int)) Int))
                 ( (+ (- 1 ((_ p2_11 0) (+ x!1 1))) ((_ p2_11 0) x!1))
                   (let ((a!1 (* (mod ((_ ilog2_2_11 0) (+ x!1 1)) 2)
                                 (mod x!1 2))))
                     (+ (div x!1 2) a!1))
                   (ite (<= x!1 1) 0 (+ 1 ((_ ilog2_2_11 0) (div x!1 2))))
                   (mod (+ ((_ o2_09 0) x!1) 1) 2)
                   (let ((a!1 ((_ f2_09 0) (+ ((_ o2_09 0) (- x!1 1)) 1))))
                     (ite (= x!1 0) 1 a!1))
                   (ite (= (mod ((_ p2_09 0) x!1) 2) 1)
                        x!1
                        ((_ f2_09 0) (+ x!1 1)))
                   (ite (= x!1 0) 0 (+ ((_ p2_09 0) (div x!1 2)) x!1))))
(assert
 (forall ((n Int) )(let ((?x299 ((_ T2_11 0) n)))
(let ((?x324 ((_ T2_09 0) n)))
(let (($x250 (= ?x324 ?x299)))
(let (($x323 (>= n 0)))
(=> $x323 $x250))))))
)
(check-sat)
